$molecule
0 1
O  -0.6423901208000000 -0.1081650670000000 -0.0921951507000000
H  -1.3671790922000000  0.3457809629000000 -0.1440822246000000
H   0.0646697732000000  0.4961784133000000 -0.1261622583000000
$end

$velocity
 0.0000000000000000e+00   0.0000000000000000e+00   0.0000000000000000e+00
 -3.9983482510149392e-04   1.5367482762277842e-03   6.1982186000960010e-04
 -3.9636522283462844e-03   -1.5367798282955598e-03   6.1980136353586592e-04
$end

$rem
JOBTYPE =  aimd
AIMD_METHOD = bomd
METHOD = B3LYP
BASIS  = def2-TZVP
DFT_D   = D4
Time_step = 8
aimd_steps = 2500
aimd_print = 1
no_reorient = true
sym_ignore = true
$end
