$molecule
0 1
O  -0.6423901208000000 -0.1081650670000000 -0.0921951507000000
H  -1.3671790922000000  0.3457809629000000 -0.1440822246000000
H   0.0646697732000000  0.4961784133000000 -0.1261622583000000
$end

$rem
JOBTYPE = FREQ
METHOD = B3LYP
BASIS = def2-TZVP
DFT_D = D4
SCF_CONVERGENCE = 8
GEOM_OPT_MAX_CYCLES = 400
GEOM_OPT_COORDS = -1
GEOM_OPT_TOL_DISPLACEMENT = 1
GEOM_OPT_TOL_GRADIENT = 1
GEOM_OPT_TOL_ENERGY = 1
MEM_STATIC = 5000
MEM_TOTAL = 40000
SYM_IGNORE = TRUE
XC_GRID = 3
$end
