$molecule
0 1
O   0.0000000000000000 -0.0649521300000000  0.0000000000000000
H   0.7621727600000000  0.5154197600000000  0.0000000000000000
H  -0.7621727800000000  0.5154197500000000  0.0000000000000000
$end

$rem
JOBTYPE = OPT
METHOD = B3LYP
BASIS = def2-TZVP
DFT_D = D4
SCF_CONVERGENCE = 8
GEOM_OPT_MAX_CYCLES = 400
GEOM_OPT_COORDS = -1
GEOM_OPT_TOL_DISPLACEMENT = 1
GEOM_OPT_TOL_GRADIENT = 1
GEOM_OPT_TOL_ENERGY = 1
MEM_STATIC = 5000
MEM_TOTAL = 20000
SYM_IGNORE = TRUE
XC_GRID = 3
$end
